Maximize
  0.000397398 Z_612_0_0 + 0.00269395771468733 Z_612_0_1
   + 0.7988258945487361 Z_612_0_2 + 0.000646631 Z_612_0_3
   + 0.0974361186174634 Z_612_0_4 + 0.0896672226863591 Z_296_2_0
   + 0.1215648702892465 Z_296_2_1 + 0.0125387824923366 Z_296_2_2
   + 0.3280038716868142 Z_296_2_3 + 0.3482252528452435 Z_296_2_4
   + 3.1062874173144939e-04 Z_296_1_0 + 0.00298800789662004 Z_296_1_1
   + 0.8700793323176749 Z_296_1_2 + 0.00438876600412799 Z_296_1_3
   + 0.0222332650398456 Z_296_1_4 + 0.0557959068186696 Z_296_3_0
   + 0.0476194188906342 Z_296_3_1 + 0.0594049793499249 Z_296_3_2
   + 0.2690387453839578 Z_296_3_3 + 0.4681409495568135 Z_296_3_4
   + 3.1062874173144939e-04 Z_296_0_0 + 0.00298800789662004 Z_296_0_1
   + 0.8700793323176749 Z_296_0_2 + 0.00438876600412799 Z_296_0_3
   + 0.0222332650398456 Z_296_0_4 + 0.00324052048754848 Z_196_0_0
   + 0.00139510451186051 Z_196_0_1 + 0.00245472741403796 Z_196_0_2
   + 0.7158479070214407 Z_196_0_3 + 0.1770617405651123 Z_196_0_4
   + 4.74538e-05 Z_104_0_0 + 0.0018564758284082 Z_104_0_1
   + 0.8886919971241035 Z_104_0_2 + 0.00420600329010743 Z_104_0_3
   + 0.00519807 Z_104_0_4 + [ 3.4067559196872521e-04 Z_612_0_0 * Z_296_1_0
   + 0.0051422708618331 Z_612_0_0 * Z_296_0_0
   + 0.0199015598468873 Z_612_0_0 * Z_196_0_0 + 0.001 Z_612_0_0 * Z_104_0_0
   + 3.4067559196872521e-04 Z_612_0_1 * Z_296_1_1
   + 0.0051422708618331 Z_612_0_1 * Z_296_0_1
   + 0.0199015598468873 Z_612_0_1 * Z_196_0_1 + 0.001 Z_612_0_1 * Z_104_0_1
   + 3.4067559196872521e-04 Z_612_0_2 * Z_296_1_2
   + 0.0051422708618331 Z_612_0_2 * Z_296_0_2
   + 0.0199015598468873 Z_612_0_2 * Z_196_0_2 + 0.001 Z_612_0_2 * Z_104_0_2
   + 3.4067559196872521e-04 Z_612_0_3 * Z_296_1_3
   + 0.0051422708618331 Z_612_0_3 * Z_296_0_3
   + 0.0199015598468873 Z_612_0_3 * Z_196_0_3 + 0.001 Z_612_0_3 * Z_104_0_3
   + 3.4067559196872521e-04 Z_612_0_4 * Z_296_1_4
   + 0.0051422708618331 Z_612_0_4 * Z_296_0_4
   + 0.0199015598468873 Z_612_0_4 * Z_196_0_4 + 0.001 Z_612_0_4 * Z_104_0_4
   + 0.00169802265265558 Z_296_1_0 * Z_196_0_0
   + 0.00169802265265558 Z_296_1_1 * Z_196_0_1
   + 0.00169802265265558 Z_296_1_2 * Z_196_0_2
   + 0.00169802265265558 Z_296_1_3 * Z_196_0_3
   + 0.00169802265265558 Z_296_1_4 * Z_196_0_4
   + 0.00169802265265558 Z_296_0_0 * Z_196_0_0
   + 0.00169802265265558 Z_296_0_1 * Z_196_0_1
   + 0.00169802265265558 Z_296_0_2 * Z_196_0_2
   + 0.00169802265265558 Z_296_0_3 * Z_196_0_3
   + 0.00169802265265558 Z_296_0_4 * Z_196_0_4 + 0.4 Z_196_0_0 * Z_104_0_0
   + 0.4 Z_196_0_1 * Z_104_0_1 + 0.4 Z_196_0_2 * Z_104_0_2
   + 0.4 Z_196_0_3 * Z_104_0_3 + 0.4 Z_196_0_4 * Z_104_0_4 ] / 2 
Subject To
 constraint1_6120: Z_612_0_0 + Z_612_0_1 + Z_612_0_2 + Z_612_0_3
   + Z_612_0_4 <= 1
 constraint1_2962: Z_296_2_0 + Z_296_2_1 + Z_296_2_2 + Z_296_2_3
   + Z_296_2_4 <= 1
 constraint1_2961: Z_296_1_0 + Z_296_1_1 + Z_296_1_2 + Z_296_1_3
   + Z_296_1_4 <= 1
 constraint1_2963: Z_296_3_0 + Z_296_3_1 + Z_296_3_2 + Z_296_3_3
   + Z_296_3_4 <= 1
 constraint1_2960: Z_296_0_0 + Z_296_0_1 + Z_296_0_2 + Z_296_0_3
   + Z_296_0_4 <= 1
 constraint1_1960: Z_196_0_0 + Z_196_0_1 + Z_196_0_2 + Z_196_0_3
   + Z_196_0_4 <= 1
 constraint1_1040: Z_104_0_0 + Z_104_0_1 + Z_104_0_2 + Z_104_0_3
   + Z_104_0_4 <= 1
 constraint2_6120: Z_612_0_0 <= 1
 constraint2_6121: Z_612_0_1 <= 1
 constraint2_6122: Z_612_0_2 <= 1
 constraint2_6123: Z_612_0_3 <= 1
 constraint2_5630: <= 1
 constraint2_5631: <= 1
 constraint2_5632: <= 1
 constraint2_5633: <= 1
 constraint2_2960: Z_296_2_0 + Z_296_1_0 + Z_296_3_0 + Z_296_0_0 <= 1
 constraint2_2961: Z_296_2_1 + Z_296_1_1 + Z_296_3_1 + Z_296_0_1 <= 1
 constraint2_2962: Z_296_2_2 + Z_296_1_2 + Z_296_3_2 + Z_296_0_2 <= 1
 constraint2_2963: Z_296_2_3 + Z_296_1_3 + Z_296_3_3 + Z_296_0_3 <= 1
 constraint2_1960: Z_196_0_0 <= 1
 constraint2_1961: Z_196_0_1 <= 1
 constraint2_1962: Z_196_0_2 <= 1
 constraint2_1963: Z_196_0_3 <= 1
 constraint2_3690: <= 1
 constraint2_3691: <= 1
 constraint2_3692: <= 1
 constraint2_3693: <= 1
 constraint2_1040: Z_104_0_0 <= 1
 constraint2_1041: Z_104_0_1 <= 1
 constraint2_1042: Z_104_0_2 <= 1
 constraint2_1043: Z_104_0_3 <= 1
Bounds
Binaries
 Z_612_0_0 Z_612_0_1 Z_612_0_2 Z_612_0_3 Z_612_0_4 Z_296_2_0 Z_296_2_1
 Z_296_2_2 Z_296_2_3 Z_296_2_4 Z_296_1_0 Z_296_1_1 Z_296_1_2 Z_296_1_3
 Z_296_1_4 Z_296_3_0 Z_296_3_1 Z_296_3_2 Z_296_3_3 Z_296_3_4 Z_296_0_0
 Z_296_0_1 Z_296_0_2 Z_296_0_3 Z_296_0_4 Z_196_0_0 Z_196_0_1 Z_196_0_2
 Z_196_0_3 Z_196_0_4 Z_104_0_0 Z_104_0_1 Z_104_0_2 Z_104_0_3 Z_104_0_4
End
